outputs/case_395.model.txt
guarantee_deposit_minimum = 0
guarantee_deposit_amount = 0
notary_license_granted = True
broker_license_granted = True
broker_guarantee_insurance = True
penalty = False
license_and_deposit_and_insurance_ok = True
broker_liability_insurance = True
deposit_and_insurance_ok = True
practice_certificate_held = True
license_required = True
notary_liability_insurance = True
agent_license_granted = True
agent_liability_insurance = True